c graph colorability of graph:
c random_regular_graph(5, 98).
c
c Generated with `cnfgen`
c (C) 2012-2016 Massimo Lauria <lauria.massimo@gmail.com>
c https://massimolauria.github.io/cnfgen
c
p cnf 294 1127
1 2 3 0
-1 -2 0
-1 -3 0
-2 -3 0
4 5 6 0
-4 -5 0
-4 -6 0
-5 -6 0
7 8 9 0
-7 -8 0
-7 -9 0
-8 -9 0
10 11 12 0
-10 -11 0
-10 -12 0
-11 -12 0
13 14 15 0
-13 -14 0
-13 -15 0
-14 -15 0
16 17 18 0
-16 -17 0
-16 -18 0
-17 -18 0
19 20 21 0
-19 -20 0
-19 -21 0
-20 -21 0
22 23 24 0
-22 -23 0
-22 -24 0
-23 -24 0
25 26 27 0
-25 -26 0
-25 -27 0
-26 -27 0
28 29 30 0
-28 -29 0
-28 -30 0
-29 -30 0
31 32 33 0
-31 -32 0
-31 -33 0
-32 -33 0
34 35 36 0
-34 -35 0
-34 -36 0
-35 -36 0
37 38 39 0
-37 -38 0
-37 -39 0
-38 -39 0
40 41 42 0
-40 -41 0
-40 -42 0
-41 -42 0
43 44 45 0
-43 -44 0
-43 -45 0
-44 -45 0
46 47 48 0
-46 -47 0
-46 -48 0
-47 -48 0
49 50 51 0
-49 -50 0
-49 -51 0
-50 -51 0
52 53 54 0
-52 -53 0
-52 -54 0
-53 -54 0
55 56 57 0
-55 -56 0
-55 -57 0
-56 -57 0
58 59 60 0
-58 -59 0
-58 -60 0
-59 -60 0
61 62 63 0
-61 -62 0
-61 -63 0
-62 -63 0
64 65 66 0
-64 -65 0
-64 -66 0
-65 -66 0
67 68 69 0
-67 -68 0
-67 -69 0
-68 -69 0
70 71 72 0
-70 -71 0
-70 -72 0
-71 -72 0
73 74 75 0
-73 -74 0
-73 -75 0
-74 -75 0
76 77 78 0
-76 -77 0
-76 -78 0
-77 -78 0
79 80 81 0
-79 -80 0
-79 -81 0
-80 -81 0
82 83 84 0
-82 -83 0
-82 -84 0
-83 -84 0
85 86 87 0
-85 -86 0
-85 -87 0
-86 -87 0
88 89 90 0
-88 -89 0
-88 -90 0
-89 -90 0
91 92 93 0
-91 -92 0
-91 -93 0
-92 -93 0
94 95 96 0
-94 -95 0
-94 -96 0
-95 -96 0
97 98 99 0
-97 -98 0
-97 -99 0
-98 -99 0
100 101 102 0
-100 -101 0
-100 -102 0
-101 -102 0
103 104 105 0
-103 -104 0
-103 -105 0
-104 -105 0
106 107 108 0
-106 -107 0
-106 -108 0
-107 -108 0
109 110 111 0
-109 -110 0
-109 -111 0
-110 -111 0
112 113 114 0
-112 -113 0
-112 -114 0
-113 -114 0
115 116 117 0
-115 -116 0
-115 -117 0
-116 -117 0
118 119 120 0
-118 -119 0
-118 -120 0
-119 -120 0
121 122 123 0
-121 -122 0
-121 -123 0
-122 -123 0
124 125 126 0
-124 -125 0
-124 -126 0
-125 -126 0
127 128 129 0
-127 -128 0
-127 -129 0
-128 -129 0
130 131 132 0
-130 -131 0
-130 -132 0
-131 -132 0
133 134 135 0
-133 -134 0
-133 -135 0
-134 -135 0
136 137 138 0
-136 -137 0
-136 -138 0
-137 -138 0
139 140 141 0
-139 -140 0
-139 -141 0
-140 -141 0
142 143 144 0
-142 -143 0
-142 -144 0
-143 -144 0
145 146 147 0
-145 -146 0
-145 -147 0
-146 -147 0
148 149 150 0
-148 -149 0
-148 -150 0
-149 -150 0
151 152 153 0
-151 -152 0
-151 -153 0
-152 -153 0
154 155 156 0
-154 -155 0
-154 -156 0
-155 -156 0
157 158 159 0
-157 -158 0
-157 -159 0
-158 -159 0
160 161 162 0
-160 -161 0
-160 -162 0
-161 -162 0
163 164 165 0
-163 -164 0
-163 -165 0
-164 -165 0
166 167 168 0
-166 -167 0
-166 -168 0
-167 -168 0
169 170 171 0
-169 -170 0
-169 -171 0
-170 -171 0
172 173 174 0
-172 -173 0
-172 -174 0
-173 -174 0
175 176 177 0
-175 -176 0
-175 -177 0
-176 -177 0
178 179 180 0
-178 -179 0
-178 -180 0
-179 -180 0
181 182 183 0
-181 -182 0
-181 -183 0
-182 -183 0
184 185 186 0
-184 -185 0
-184 -186 0
-185 -186 0
187 188 189 0
-187 -188 0
-187 -189 0
-188 -189 0
190 191 192 0
-190 -191 0
-190 -192 0
-191 -192 0
193 194 195 0
-193 -194 0
-193 -195 0
-194 -195 0
196 197 198 0
-196 -197 0
-196 -198 0
-197 -198 0
199 200 201 0
-199 -200 0
-199 -201 0
-200 -201 0
202 203 204 0
-202 -203 0
-202 -204 0
-203 -204 0
205 206 207 0
-205 -206 0
-205 -207 0
-206 -207 0
208 209 210 0
-208 -209 0
-208 -210 0
-209 -210 0
211 212 213 0
-211 -212 0
-211 -213 0
-212 -213 0
214 215 216 0
-214 -215 0
-214 -216 0
-215 -216 0
217 218 219 0
-217 -218 0
-217 -219 0
-218 -219 0
220 221 222 0
-220 -221 0
-220 -222 0
-221 -222 0
223 224 225 0
-223 -224 0
-223 -225 0
-224 -225 0
226 227 228 0
-226 -227 0
-226 -228 0
-227 -228 0
229 230 231 0
-229 -230 0
-229 -231 0
-230 -231 0
232 233 234 0
-232 -233 0
-232 -234 0
-233 -234 0
235 236 237 0
-235 -236 0
-235 -237 0
-236 -237 0
238 239 240 0
-238 -239 0
-238 -240 0
-239 -240 0
241 242 243 0
-241 -242 0
-241 -243 0
-242 -243 0
244 245 246 0
-244 -245 0
-244 -246 0
-245 -246 0
247 248 249 0
-247 -248 0
-247 -249 0
-248 -249 0
250 251 252 0
-250 -251 0
-250 -252 0
-251 -252 0
253 254 255 0
-253 -254 0
-253 -255 0
-254 -255 0
256 257 258 0
-256 -257 0
-256 -258 0
-257 -258 0
259 260 261 0
-259 -260 0
-259 -261 0
-260 -261 0
262 263 264 0
-262 -263 0
-262 -264 0
-263 -264 0
265 266 267 0
-265 -266 0
-265 -267 0
-266 -267 0
268 269 270 0
-268 -269 0
-268 -270 0
-269 -270 0
271 272 273 0
-271 -272 0
-271 -273 0
-272 -273 0
274 275 276 0
-274 -275 0
-274 -276 0
-275 -276 0
277 278 279 0
-277 -278 0
-277 -279 0
-278 -279 0
280 281 282 0
-280 -281 0
-280 -282 0
-281 -282 0
283 284 285 0
-283 -284 0
-283 -285 0
-284 -285 0
286 287 288 0
-286 -287 0
-286 -288 0
-287 -288 0
289 290 291 0
-289 -290 0
-289 -291 0
-290 -291 0
292 293 294 0
-292 -293 0
-292 -294 0
-293 -294 0
-1 -4 0
-2 -5 0
-3 -6 0
-1 -100 0
-2 -101 0
-3 -102 0
-1 -121 0
-2 -122 0
-3 -123 0
-1 -166 0
-2 -167 0
-3 -168 0
-1 -223 0
-2 -224 0
-3 -225 0
-4 -109 0
-5 -110 0
-6 -111 0
-4 -121 0
-5 -122 0
-6 -123 0
-4 -190 0
-5 -191 0
-6 -192 0
-4 -274 0
-5 -275 0
-6 -276 0
-7 -91 0
-8 -92 0
-9 -93 0
-7 -121 0
-8 -122 0
-9 -123 0
-7 -136 0
-8 -137 0
-9 -138 0
-7 -199 0
-8 -200 0
-9 -201 0
-7 -220 0
-8 -221 0
-9 -222 0
-10 -175 0
-11 -176 0
-12 -177 0
-10 -181 0
-11 -182 0
-12 -183 0
-10 -193 0
-11 -194 0
-12 -195 0
-10 -247 0
-11 -248 0
-12 -249 0
-10 -265 0
-11 -266 0
-12 -267 0
-13 -25 0
-14 -26 0
-15 -27 0
-13 -97 0
-14 -98 0
-15 -99 0
-13 -136 0
-14 -137 0
-15 -138 0
-13 -220 0
-14 -221 0
-15 -222 0
-13 -271 0
-14 -272 0
-15 -273 0
-16 -37 0
-17 -38 0
-18 -39 0
-16 -169 0
-17 -170 0
-18 -171 0
-16 -172 0
-17 -173 0
-18 -174 0
-16 -250 0
-17 -251 0
-18 -252 0
-16 -271 0
-17 -272 0
-18 -273 0
-19 -34 0
-20 -35 0
-21 -36 0
-19 -73 0
-20 -74 0
-21 -75 0
-19 -118 0
-20 -119 0
-21 -120 0
-19 -133 0
-20 -134 0
-21 -135 0
-19 -184 0
-20 -185 0
-21 -186 0
-22 -31 0
-23 -32 0
-24 -33 0
-22 -73 0
-23 -74 0
-24 -75 0
-22 -88 0
-23 -89 0
-24 -90 0
-22 -163 0
-23 -164 0
-24 -165 0
-22 -181 0
-23 -182 0
-24 -183 0
-25 -106 0
-26 -107 0
-27 -108 0
-25 -178 0
-26 -179 0
-27 -180 0
-25 -202 0
-26 -203 0
-27 -204 0
-25 -256 0
-26 -257 0
-27 -258 0
-28 -103 0
-29 -104 0
-30 -105 0
-28 -112 0
-29 -113 0
-30 -114 0
-28 -133 0
-29 -134 0
-30 -135 0
-28 -184 0
-29 -185 0
-30 -186 0
-28 -226 0
-29 -227 0
-30 -228 0
-31 -217 0
-32 -218 0
-33 -219 0
-31 -238 0
-32 -239 0
-33 -240 0
-31 -283 0
-32 -284 0
-33 -285 0
-31 -286 0
-32 -287 0
-33 -288 0
-34 -37 0
-35 -38 0
-36 -39 0
-34 -55 0
-35 -56 0
-36 -57 0
-34 -76 0
-35 -77 0
-36 -78 0
-34 -94 0
-35 -95 0
-36 -96 0
-37 -52 0
-38 -53 0
-39 -54 0
-37 -175 0
-38 -176 0
-39 -177 0
-37 -280 0
-38 -281 0
-39 -282 0
-40 -46 0
-41 -47 0
-42 -48 0
-40 -136 0
-41 -137 0
-42 -138 0
-40 -157 0
-41 -158 0
-42 -159 0
-40 -172 0
-41 -173 0
-42 -174 0
-40 -232 0
-41 -233 0
-42 -234 0
-43 -118 0
-44 -119 0
-45 -120 0
-43 -127 0
-44 -128 0
-45 -129 0
-43 -160 0
-44 -161 0
-45 -162 0
-43 -244 0
-44 -245 0
-45 -246 0
-43 -283 0
-44 -284 0
-45 -285 0
-46 -154 0
-47 -155 0
-48 -156 0
-46 -199 0
-47 -200 0
-48 -201 0
-46 -208 0
-47 -209 0
-48 -210 0
-46 -280 0
-47 -281 0
-48 -282 0
-49 -97 0
-50 -98 0
-51 -99 0
-49 -103 0
-50 -104 0
-51 -105 0
-49 -172 0
-50 -173 0
-51 -174 0
-49 -226 0
-50 -227 0
-51 -228 0
-49 -277 0
-50 -278 0
-51 -279 0
-52 -82 0
-53 -83 0
-54 -84 0
-52 -232 0
-53 -233 0
-54 -234 0
-52 -250 0
-53 -251 0
-54 -252 0
-52 -292 0
-53 -293 0
-54 -294 0
-55 -61 0
-56 -62 0
-57 -63 0
-55 -100 0
-56 -101 0
-57 -102 0
-55 -178 0
-56 -179 0
-57 -180 0
-55 -193 0
-56 -194 0
-57 -195 0
-58 -79 0
-59 -80 0
-60 -81 0
-58 -130 0
-59 -131 0
-60 -132 0
-58 -133 0
-59 -134 0
-60 -135 0
-58 -145 0
-59 -146 0
-60 -147 0
-58 -208 0
-59 -209 0
-60 -210 0
-61 -85 0
-62 -86 0
-63 -87 0
-61 -208 0
-62 -209 0
-63 -210 0
-61 -253 0
-62 -254 0
-63 -255 0
-61 -274 0
-62 -275 0
-63 -276 0
-64 -70 0
-65 -71 0
-66 -72 0
-64 -94 0
-65 -95 0
-66 -96 0
-64 -142 0
-65 -143 0
-66 -144 0
-64 -145 0
-65 -146 0
-66 -147 0
-64 -190 0
-65 -191 0
-66 -192 0
-67 -124 0
-68 -125 0
-69 -126 0
-67 -154 0
-68 -155 0
-69 -156 0
-67 -211 0
-68 -212 0
-69 -213 0
-67 -232 0
-68 -233 0
-69 -234 0
-67 -274 0
-68 -275 0
-69 -276 0
-70 -82 0
-71 -83 0
-72 -84 0
-70 -223 0
-71 -224 0
-72 -225 0
-70 -235 0
-71 -236 0
-72 -237 0
-70 -253 0
-71 -254 0
-72 -255 0
-73 -79 0
-74 -80 0
-75 -81 0
-73 -163 0
-74 -164 0
-75 -165 0
-73 -229 0
-74 -230 0
-75 -231 0
-76 -124 0
-77 -125 0
-78 -126 0
-76 -130 0
-77 -131 0
-78 -132 0
-76 -229 0
-77 -230 0
-78 -231 0
-76 -262 0
-77 -263 0
-78 -264 0
-79 -235 0
-80 -236 0
-81 -237 0
-79 -247 0
-80 -248 0
-81 -249 0
-79 -289 0
-80 -290 0
-81 -291 0
-82 -88 0
-83 -89 0
-84 -90 0
-82 -145 0
-83 -146 0
-84 -147 0
-82 -151 0
-83 -152 0
-84 -153 0
-85 -91 0
-86 -92 0
-87 -93 0
-85 -139 0
-86 -140 0
-87 -141 0
-85 -148 0
-86 -149 0
-87 -150 0
-85 -214 0
-86 -215 0
-87 -216 0
-88 -94 0
-89 -95 0
-90 -96 0
-88 -118 0
-89 -119 0
-90 -120 0
-88 -235 0
-89 -236 0
-90 -237 0
-91 -94 0
-92 -95 0
-93 -96 0
-91 -127 0
-92 -128 0
-93 -129 0
-91 -169 0
-92 -170 0
-93 -171 0
-94 -256 0
-95 -257 0
-96 -258 0
-97 -145 0
-98 -146 0
-99 -147 0
-97 -178 0
-98 -179 0
-99 -180 0
-97 -202 0
-98 -203 0
-99 -204 0
-100 -130 0
-101 -131 0
-102 -132 0
-100 -151 0
-101 -152 0
-102 -153 0
-100 -277 0
-101 -278 0
-102 -279 0
-103 -139 0
-104 -140 0
-105 -141 0
-103 -217 0
-104 -218 0
-105 -219 0
-103 -232 0
-104 -233 0
-105 -234 0
-106 -142 0
-107 -143 0
-108 -144 0
-106 -175 0
-107 -176 0
-108 -177 0
-106 -184 0
-107 -185 0
-108 -186 0
-106 -196 0
-107 -197 0
-108 -198 0
-109 -124 0
-110 -125 0
-111 -126 0
-109 -130 0
-110 -131 0
-111 -132 0
-109 -229 0
-110 -230 0
-111 -231 0
-109 -253 0
-110 -254 0
-111 -255 0
-112 -166 0
-113 -167 0
-114 -168 0
-112 -223 0
-113 -224 0
-114 -225 0
-112 -244 0
-113 -245 0
-114 -246 0
-112 -262 0
-113 -263 0
-114 -264 0
-115 -184 0
-116 -185 0
-117 -186 0
-115 -193 0
-116 -194 0
-117 -195 0
-115 -202 0
-116 -203 0
-117 -204 0
-115 -241 0
-116 -242 0
-117 -243 0
-115 -265 0
-116 -266 0
-117 -267 0
-118 -274 0
-119 -275 0
-120 -276 0
-118 -277 0
-119 -278 0
-120 -279 0
-121 -190 0
-122 -191 0
-123 -192 0
-121 -196 0
-122 -197 0
-123 -198 0
-124 -205 0
-125 -206 0
-126 -207 0
-124 -211 0
-125 -212 0
-126 -213 0
-127 -160 0
-128 -161 0
-129 -162 0
-127 -169 0
-128 -170 0
-129 -171 0
-127 -286 0
-128 -287 0
-129 -288 0
-130 -241 0
-131 -242 0
-132 -243 0
-133 -136 0
-134 -137 0
-135 -138 0
-133 -184 0
-134 -185 0
-135 -186 0
-136 -187 0
-137 -188 0
-138 -189 0
-139 -166 0
-140 -167 0
-141 -168 0
-139 -187 0
-140 -188 0
-141 -189 0
-139 -271 0
-140 -272 0
-141 -273 0
-142 -160 0
-143 -161 0
-144 -162 0
-142 -235 0
-143 -236 0
-144 -237 0
-142 -265 0
-143 -266 0
-144 -267 0
-145 -265 0
-146 -266 0
-147 -267 0
-148 -151 0
-149 -152 0
-150 -153 0
-148 -205 0
-149 -206 0
-150 -207 0
-148 -211 0
-149 -212 0
-150 -213 0
-148 -259 0
-149 -260 0
-150 -261 0
-151 -214 0
-152 -215 0
-153 -216 0
-151 -226 0
-152 -227 0
-153 -228 0
-154 -163 0
-155 -164 0
-156 -165 0
-154 -217 0
-155 -218 0
-156 -219 0
-154 -229 0
-155 -230 0
-156 -231 0
-157 -163 0
-158 -164 0
-159 -165 0
-157 -190 0
-158 -191 0
-159 -192 0
-157 -262 0
-158 -263 0
-159 -264 0
-157 -286 0
-158 -287 0
-159 -288 0
-160 -262 0
-161 -263 0
-162 -264 0
-160 -268 0
-161 -269 0
-162 -270 0
-163 -220 0
-164 -221 0
-165 -222 0
-166 -199 0
-167 -200 0
-168 -201 0
-166 -244 0
-167 -245 0
-168 -246 0
-169 -205 0
-170 -206 0
-171 -207 0
-169 -268 0
-170 -269 0
-171 -270 0
-172 -196 0
-173 -197 0
-174 -198 0
-172 -211 0
-173 -212 0
-174 -213 0
-175 -193 0
-176 -194 0
-177 -195 0
-175 -217 0
-176 -218 0
-177 -219 0
-178 -223 0
-179 -224 0
-180 -225 0
-178 -283 0
-179 -284 0
-180 -285 0
-181 -238 0
-182 -239 0
-183 -240 0
-181 -283 0
-182 -284 0
-183 -285 0
-181 -289 0
-182 -290 0
-183 -291 0
-187 -196 0
-188 -197 0
-189 -198 0
-187 -247 0
-188 -248 0
-189 -249 0
-187 -259 0
-188 -260 0
-189 -261 0
-190 -238 0
-191 -239 0
-192 -240 0
-193 -286 0
-194 -287 0
-195 -288 0
-196 -244 0
-197 -245 0
-198 -246 0
-199 -241 0
-200 -242 0
-201 -243 0
-199 -259 0
-200 -260 0
-201 -261 0
-202 -280 0
-203 -281 0
-204 -282 0
-202 -292 0
-203 -293 0
-204 -294 0
-205 -250 0
-206 -251 0
-207 -252 0
-205 -292 0
-206 -293 0
-207 -294 0
-208 -250 0
-209 -251 0
-210 -252 0
-208 -256 0
-209 -257 0
-210 -258 0
-211 -268 0
-212 -269 0
-213 -270 0
-214 -226 0
-215 -227 0
-216 -228 0
-214 -238 0
-215 -239 0
-216 -240 0
-214 -289 0
-215 -290 0
-216 -291 0
-217 -277 0
-218 -278 0
-219 -279 0
-220 -274 0
-221 -275 0
-222 -276 0
-220 -289 0
-221 -290 0
-222 -291 0
-223 -241 0
-224 -242 0
-225 -243 0
-226 -271 0
-227 -272 0
-228 -273 0
-229 -286 0
-230 -287 0
-231 -288 0
-232 -247 0
-233 -248 0
-234 -249 0
-235 -244 0
-236 -245 0
-237 -246 0
-238 -241 0
-239 -242 0
-240 -243 0
-247 -253 0
-248 -254 0
-249 -255 0
-250 -268 0
-251 -269 0
-252 -270 0
-253 -280 0
-254 -281 0
-255 -282 0
-256 -262 0
-257 -263 0
-258 -264 0
-256 -289 0
-257 -290 0
-258 -291 0
-259 -271 0
-260 -272 0
-261 -273 0
-259 -292 0
-260 -293 0
-261 -294 0
-265 -268 0
-266 -269 0
-267 -270 0
-277 -292 0
-278 -293 0
-279 -294 0
-280 -283 0
-281 -284 0
-282 -285 0
